U_100_1.txt

VEHICLE     CAPACITY  LOCATIONS  CUSTOMER  OPTIONS  PRIORITIES  NUMTYPS
10		150		121		100		200		3		4

CUSTOMER  DEMAND
0	 13
1	 17
2	 10
3	 19
4	 15
5	 16
6	 19
7	 12
8	 20
9	 13
10	 17
11	 15
12	 15
13	 12
14	 12
15	 16
16	 19
17	 12
18	 17
19	 15
20	 15
21	 11
22	 10
23	 15
24	 18
25	 18
26	 17
27	 14
28	 12
29	 18
30	 11
31	 15
32	 13
33	 20
34	 14
35	 18
36	 16
37	 18
38	 20
39	 10
40	 20
41	 20
42	 20
43	 10
44	 10
45	 19
46	 19
47	 10
48	 11
49	 16
50	 10
51	 19
52	 20
53	 18
54	 15
55	 18
56	 14
57	 10
58	 15
59	 17
60	 10
61	 11
62	 13
63	 19
64	 13
65	 18
66	 15
67	 15
68	 11
69	 14
70	 18
71	 18
72	 11
73	 10
74	 15
75	 17
76	 12
77	 13
78	 10
79	 20
80	 14
81	 17
82	 19
83	 15
84	 17
85	 10
86	 12
87	 14
88	 17
89	 16
90	 13
91	 11
92	 17
93	 16
94	 12
95	 12
96	 19
97	 19
98	 16
99	 14

LOCATION  XCOORD  YCOORD  CAP  READY  DUE  TYP  SERVICETIME
0		25		35		-1		0		720	 0		0
1		3		8		-1		93		213		 2		6
2		48		22		-1		109		229		 2		6
3		29		46		-1		0		360		 2		6
4		45		23		-1		199		439		 2		6
5		39		32		-1		234		354		 2		6
6		33		45		-1		523		643		 2		6
7		15		35		-1		408		648		 2		6
8		6		37		-1		436		556		 2		6
9		30		21		-1		360		720		 2		6
10		17		50		-1		207		327		 2		6
11		32		22		-1		327		567		 2		6
12		31		32		-1		0		360		 2		6
13		48		44		-1		267		507		 2		6
14		44		3		-1		360		720		 2		6
15		33		47		-1		111		231		 2		6
16		37		35		-1		231		351		 2		6
17		18		9		-1		72		312		 2		6
18		6		32		-1		0		360		 2		6
19		41		30		-1		360		720		 2		6
20		45		33		-1		360		720		 2		6
21		6		30		-1		360		720		 2		6
22		4		38		-1		56		176		 2		6
23		11		8		-1		184		304		 2		6
24		22		8		-1		421		541		 2		6
25		20		35		-1		426		546		 2		6
26		14		8		-1		360		720		 2		6
27		8		11		-1		360		720		 2		6
28		2		42		-1		64		304		 2		6
29		44		17		-1		574		694		 2		6
30		21		45		-1		360		720		 2		6
31		1		36		-1		360		720		 2		6
32		15		20		-1		0		360		 2		6
33		4		45		-1		507		627		 2		6
34		48		22		-1		546		666		 2		6
35		38		31		-1		550		670		 2		6
36		8		24		-1		363		483		 2		6
37		10		12		-1		127		247		 2		6
38		37		44		-1		485		605		 2		6
39		18		14		-1		155		275		 2		6
40		23		13		-1		240		480		 2		6
41		26		28		-1		447		567		 2		6
42		3		3		-1		0		360		 2		6
43		42		34		-1		373		613		 2		6
44		40		46		-1		182		302		 2		6
45		19		8		-1		509		629		 2		6
46		43		43		-1		73		193		 2		6
47		29		19		-1		199		319		 2		6
48		30		20		-1		467		587		 2		6
49		47		47		-1		6		246		 2		6
50		19		28		-1		422		542		 2		6
51		42		5		-1		0		360		 2		6
52		46		45		-1		124		244		 2		6
53		11		40		-1		461		701		 2		6
54		41		43		-1		101		341		 2		6
55		3		30		-1		582		702		 2		6
56		18		35		-1		360		720		 2		6
57		33		29		-1		391		631		 2		6
58		22		45		-1		0		120		 2		6
59		13		8		-1		0		360		 2		6
60		43		33		-1		240		360		 2		6
61		15		5		-1		360		720		 2		6
62		40		26		-1		117		357		 2		6
63		36		13		-1		449		569		 2		6
64		4		3		-1		360		720		 2		6
65		24		28		-1		364		484		 2		6
66		34		37		-1		360		720		 2		6
67		13		44		-1		55		175		 2		6
68		7		15		-1		110		230		 2		6
69		46		31		-1		231		351		 2		6
70		13		11		-1		360		720		 2		6
71		45		39		-1		0		360		 2		6
72		47		49		-1		360		720		 2		6
73		9		5		-1		304		544		 2		6
74		8		50		-1		6		126		 2		6
75		4		39		-1		0		360		 2		6
76		6		20		-1		32		152		 2		6
77		13		30		-1		9		249		 2		6
78		25		25		-1		0		360		 2		6
79		42		42		-1		460		700		 2		6
80		33		43		-1		0		360		 2		6
81		35		1		-1		517		637		 2		6
82		37		3		-1		511		631		 2		6
83		5		50		-1		122		242		 2		6
84		26		45		-1		158		278		 2		6
85		33		22		-1		0		360		 2		6
86		33		47		-1		86		206		 2		6
87		28		14		-1		360		720		 2		6
88		27		22		-1		0		360		 2		6
89		30		20		-1		0		360		 2		6
90		46		2		-1		61		181		 2		6
91		35		11		-1		0		360		 2		6
92		24		25		-1		97		337		 2		6
93		16		5		-1		0		360		 2		6
94		7		39		-1		360		720		 2		6
95		15		19		-1		360		720		 2		6
96		22		14		-1		82		202		 2		6
97		5		31		-1		473		593		 2		6
98		18		28		-1		0		360		 2		6
99		31		26		-1		0		360		 2		6
100		16		10		-1		543		663		 2		6
101		26		40		5		63		543		 1		4
102		21		33		5		0		720		 1		4
103		23		42		3		0		720		 1		4
104		39		45		5		0		720		 1		4
105		43		26		5		0		720		 1		4
106		29		43		5		167		647		 1		4
107		32		6		5		0		720		 1		4
108		23		33		5		37		517		 1		4
109		19		37		4		0		720		 1		4
110		39		9		5		0		720		 1		4
111		16		13		5		21		501		 1		4
112		24		31		5		194		674		 1		4
113		33		45		5		141		621		 1		4
114		31		39		5		95		575		 1		4
115		34		11		4		0		720		 1		4
116		35		20		5		115		595		 1		4
117		44		32		5		240		720		 1		4
118		32		45		5		48		528		 1		4
119		30		32		4		0		720		 1		4
120		12		11		5		186		666		 1		4
OPTION  LOCATION  CUSTOMER  PRIO  SERVICETIME   COST
0		110		0		0		2		0
1		117		1		0		2		0
2		109		2		0		2		0
3		104		3		0		2		0
4		119		4		0		2		0
5		113		5		0		2		0
6		107		6		0		2		0
7		118		7		0		2		0
8		103		8		0		2		0
9		109		9		0		2		0
10		111		10		0		2		0
11		116		11		0		2		0
12		105		12		0		2		0
13		101		13		0		2		0
14		104		14		0		2		0
15		101		15		0		2		0
16		111		16		0		2		0
17		109		17		0		2		0
18		120		18		0		2		0
19		108		19		0		2		0
20		1		20		0		5		0
21		2		21		0		5		0
22		3		22		0		5		0
23		4		23		0		5		0
24		5		24		0		5		0
25		6		25		0		5		0
26		7		26		0		5		0
27		8		27		0		5		0
28		9		28		0		5		0
29		10		29		0		5		0
30		11		30		0		5		0
31		12		31		0		5		0
32		13		32		0		5		0
33		14		33		0		5		0
34		15		34		0		5		0
35		16		35		0		5		0
36		17		36		0		5		0
37		18		37		0		5		0
38		19		38		0		5		0
39		20		39		0		5		0
40		21		40		1		5		0
41		109		40		0		2		0
42		22		41		1		5		0
43		112		41		0		2		0
44		23		42		0		5		0
45		112		42		1		2		0
46		24		43		1		5		0
47		101		43		0		2		0
48		25		44		0		5		0
49		117		44		1		2		0
50		26		45		1		5		0
51		112		45		0		2		0
52		27		46		1		5		0
53		111		46		0		2		0
54		28		47		0		5		0
55		108		47		1		2		0
56		29		48		0		5		0
57		116		48		1		2		0
58		30		49		0		5		0
59		106		49		1		2		0
60		31		50		1		5		0
61		111		50		0		2		0
62		32		51		1		5		0
63		120		51		0		2		0
64		33		52		0		5		0
65		120		52		1		2		0
66		34		53		1		5		0
67		116		53		0		2		0
68		35		54		0		5		0
69		119		54		1		2		0
70		36		55		0		5		0
71		106		55		1		2		0
72		37		56		1		5		0
73		102		56		0		2		0
74		38		57		0		5		0
75		113		57		1		2		0
76		39		58		1		5		0
77		102		58		0		2		0
78		40		59		1		5		0
79		120		59		0		2		0
80		41		60		1		5		0
81		108		60		2		2		0
82		119		60		0		2		0
83		42		61		2		5		0
84		102		61		0		2		0
85		111		61		1		2		0
86		43		62		0		5		0
87		105		62		1		2		0
88		104		62		2		2		0
89		44		63		1		5		0
90		112		63		0		2		0
91		103		63		2		2		0
92		45		64		0		5		0
93		115		64		1		2		0
94		111		64		2		2		0
95		46		65		1		5		0
96		119		65		0		2		0
97		113		65		2		2		0
98		47		66		2		5		0
99		110		66		1		2		0
100		118		66		0		2		0
101		48		67		0		5		0
102		107		67		1		2		0
103		115		67		2		2		0
104		49		68		1		5		0
105		117		68		2		2		0
106		104		68		0		2		0
107		50		69		2		5		0
108		108		69		0		2		0
109		102		69		1		2		0
110		51		70		1		5		0
111		102		70		0		2		0
112		112		70		2		2		0
113		52		71		1		5		0
114		113		71		2		2		0
115		106		71		0		2		0
116		53		72		2		5		0
117		102		72		1		2		0
118		105		72		0		2		0
119		54		73		1		5		0
120		105		73		2		2		0
121		119		73		0		2		0
122		55		74		0		5		0
123		120		74		1		2		0
124		102		74		2		2		0
125		56		75		2		5		0
126		103		75		1		2		0
127		102		75		0		2		0
128		57		76		0		5		0
129		114		76		2		2		0
130		112		76		1		2		0
131		58		77		2		5		0
132		118		77		1		2		0
133		106		77		0		2		0
134		59		78		0		5		0
135		107		78		1		2		0
136		116		78		2		2		0
137		60		79		2		5		0
138		114		79		1		2		0
139		113		79		0		2		0
140		61		80		0		5		0
141		62		80		1		5		0
142		120		80		2		2		0
143		63		81		1		5		0
144		64		81		0		5		0
145		111		81		2		2		0
146		65		82		1		5		0
147		66		82		0		5		0
148		118		82		2		2		0
149		67		83		0		5		0
150		68		83		1		5		0
151		103		83		2		2		0
152		69		84		0		5		0
153		70		84		1		5		0
154		110		84		2		2		0
155		71		85		2		5		0
156		72		85		0		5		0
157		104		85		1		2		0
158		73		86		2		5		0
159		74		86		0		5		0
160		104		86		1		2		0
161		75		87		2		5		0
162		76		87		1		5		0
163		102		87		0		2		0
164		77		88		2		5		0
165		78		88		1		5		0
166		108		88		0		2		0
167		79		89		0		5		0
168		80		89		1		5		0
169		104		89		2		2		0
170		81		90		2		5		0
171		82		90		0		5		0
172		115		90		1		2		0
173		83		91		1		5		0
174		84		91		2		5		0
175		101		91		0		2		0
176		85		92		2		5		0
177		86		92		0		5		0
178		112		92		1		2		0
179		87		93		1		5		0
180		88		93		2		5		0
181		116		93		0		2		0
182		89		94		1		5		0
183		90		94		2		5		0
184		108		94		0		2		0
185		91		95		1		5		0
186		92		95		2		5		0
187		120		95		0		2		0
188		93		96		1		5		0
189		94		96		2		5		0
190		102		96		0		2		0
191		95		97		2		5		0
192		96		97		0		5		0
193		107		97		1		2		0
194		97		98		1		5		0
195		98		98		2		5		0
196		119		98		0		2		0
197		99		99		0		5		0
198		100		99		1		5		0
199		116		99		2		2		0
